4 5 5.0
3 5 1 2 2 5 3 4 4 1 5 2 5 1 5 2 4 3 5 4 7 5 5 5 1 4 2 5 3 5 4 4 5 5 
3 5 1 2 2 5 3 4 4 7 5 8 5 1 5 2 6 3 9 4 8 5 5 5 1 4 2 5 3 4 4 54 5 5 
4 5 1 9 2 8 3 6 4 7 5 9 5 1 6 2 1 3 2 4 5 5 4 5 1 2 2 5 3 4 4 2 5 4 5 1 4 2 5 3 2 4 1 5 5 
2 5 1 1 2 5 3 2 4 4 5 12 5 1 5 2 1 3 2 4 1 5 2 
2 3 0 5 2 5 10 
2 1 1 5 1 8 10 
3 1 0 4 1 4 8 1 9 11 
2 4 2 9 2 12 21 
2 1 2 5 2 8 13 
